(declare-fun var0 () String)
(assert (str.in.re var0 (re.++ (re.* (re.+ (str.to.re "ddd"))) (re.++ (re.union (re.union (str.to.re "a") (str.to.re "b")) (re.* (str.to.re "c"))) (re.++ (re.* (re.union (str.to.re "888") (str.to.re "99"))) (re.++ (re.union (re.union (str.to.re "555") (str.to.re "66")) (re.* (str.to.re "7"))) (re.++ (re.+ (re.union (str.to.re "333") (str.to.re "444"))) (re.++ (re.union (re.+ (str.to.re "00")) (re.union (str.to.re "111") (str.to.re "222"))) (re.++ (re.union (re.* (str.to.re "||")) (re.union (str.to.re "}}") (str.to.re "~~~"))) (re.++ (re.+ (re.union (str.to.re "`") (str.to.re "{{"))) (re.++ (re.+ (re.union (str.to.re "^^^") (str.to.re "__"))) (re.++ (re.+ (re.+ (str.to.re "]"))) (re.++ (re.+ (re.union (str.to.re "[") (str.to.re "\\\\"))) (re.++ (re.* (re.union (str.to.re "???") (str.to.re "@@"))) (re.++ (re.* (re.* (str.to.re ">>>"))) (re.++ (re.* (re.* (str.to.re "==="))) (re.++ (re.* (re.union (str.to.re ";;") (str.to.re "<"))) (re.++ (re.union (re.+ (str.to.re ".")) (re.union (str.to.re "///") (str.to.re ":::"))) (re.++ (re.union (re.* (str.to.re ",,")) (re.* (str.to.re "--"))) (re.++ (re.* (re.+ (str.to.re "+"))) (re.++ (re.+ (re.union (str.to.re ")") (str.to.re "*"))) (re.++ (re.* (re.* (str.to.re "(("))) (re.++ (re.+ (re.+ (str.to.re "'''"))) (re.++ (re.+ (re.+ (str.to.re "&"))) (re.++ (re.union (re.+ (str.to.re "##")) (re.union (str.to.re "$$") (str.to.re "%"))) (re.++ (re.* (re.union (str.to.re "!") (str.to.re """"))) (re.++ (re.* (re.union (str.to.re "Y") (str.to.re "ZZ"))) (re.++ (re.+ (re.* (str.to.re "XXX"))) (re.++ (re.+ (re.* (str.to.re "WWW"))) (re.++ (re.+ (re.+ (str.to.re "VVV"))) (re.++ (re.union (re.+ (str.to.re "SSS")) (re.union (str.to.re "TT") (str.to.re "U"))) (re.++ (re.* (re.+ (str.to.re "R"))) (re.++ (re.+ (re.* (str.to.re "QQQ"))) (re.++ (re.* (re.* (str.to.re "PPP"))) (re.++ (re.* (re.* (str.to.re "OO"))) (re.++ (re.union (re.+ (str.to.re "M")) (re.+ (str.to.re "N"))) (re.++ (re.union (re.* (str.to.re "KKK")) (re.+ (str.to.re "LLL"))) (re.++ (re.union (re.union (str.to.re "G") (str.to.re "HH")) (re.union (str.to.re "I") (str.to.re "JJJ"))) (re.++ (re.union (re.union (str.to.re "CCC") (str.to.re "DDD")) (re.union (str.to.re "E") (str.to.re "FF"))) (re.++ (re.* (re.+ (str.to.re "B"))) (re.++ (re.+ (re.* (str.to.re "AA"))) (re.++ (re.+ (re.* (str.to.re "z"))) (re.++ (re.* (re.union (str.to.re "xx") (str.to.re "yyy"))) (re.++ (re.* (re.+ (str.to.re "www"))) (re.++ (re.* (re.union (str.to.re "u") (str.to.re "vv"))) (re.++ (re.union (re.+ (str.to.re "ss")) (re.+ (str.to.re "ttt"))) (re.++ (re.* (re.+ (str.to.re "rrr"))) (re.++ (re.+ (re.union (str.to.re "pp") (str.to.re "qqq"))) (re.++ (re.+ (re.* (str.to.re "oo"))) (re.++ (re.* (re.+ (str.to.re "nnn"))) (re.++ (re.* (re.+ (str.to.re "m"))) (re.++ (re.* (re.+ (str.to.re "l"))) (re.++ (re.+ (re.union (str.to.re "j") (str.to.re "kk"))) (re.++ (re.union (re.* (str.to.re "h")) (re.* (str.to.re "iii"))) (re.++ (re.* (re.* (str.to.re "g"))) (re.++ (re.+ (re.union (str.to.re "eee") (str.to.re "ff"))) (re.++ (re.* (re.union (str.to.re "c") (str.to.re "ddd"))) (re.++ (re.* (re.+ (str.to.re "b"))) (re.++ (re.union (re.+ (str.to.re "88")) (re.union (str.to.re "999") (str.to.re "a"))) (re.++ (re.* (re.+ (str.to.re "77"))) (re.++ (re.+ (re.+ (str.to.re "666"))) (re.++ (re.union (re.union (str.to.re "22") (str.to.re "3")) (re.union (str.to.re "44") (str.to.re "555"))) (re.union (re.* (str.to.re "000")) (re.+ (str.to.re "11")))))))))))))))))))))))))))))))))))))))))))))))))))))))))))))))))
(assert (not (str.in.re var0 (re.++ (re.union (re.+ (str.to.re "88")) (re.* (str.to.re "9"))) (re.++ (re.* (re.* (str.to.re "7"))) (re.++ (re.union (re.* (str.to.re "4")) (re.union (str.to.re "5") (str.to.re "6"))) (re.++ (re.union (re.+ (str.to.re "2")) (re.+ (str.to.re "3"))) (re.++ (re.+ (re.union (str.to.re "0") (str.to.re "1"))) (re.++ (re.union (re.union (str.to.re "||") (str.to.re "}}")) (re.* (str.to.re "~"))) (re.++ (re.+ (re.union (str.to.re "``") (str.to.re "{{"))) (re.++ (re.+ (re.* (str.to.re "___"))) (re.++ (re.* (re.union (str.to.re "]]") (str.to.re "^^"))) (re.++ (re.union (re.union (str.to.re "@") (str.to.re "[[")) (re.+ (str.to.re "\\"))) (re.++ (re.+ (re.union (str.to.re ">>") (str.to.re "?"))) (re.++ (re.* (re.union (str.to.re "<") (str.to.re "=="))) (re.++ (re.* (re.+ (str.to.re ";;"))) (re.++ (re.+ (re.+ (str.to.re ":"))) (re.++ (re.* (re.* (str.to.re "//"))) (re.++ (re.union (re.+ (str.to.re ",,")) (re.union (str.to.re "-") (str.to.re ".."))) (re.++ (re.* (re.+ (str.to.re "+"))) (re.++ (re.union (re.* (str.to.re "))")) (re.* (str.to.re "*"))) (re.++ (re.union (re.union (str.to.re "&") (str.to.re "'''")) (re.+ (str.to.re "((("))) (re.++ (re.+ (re.+ (str.to.re "%%"))) (re.++ (re.+ (re.union (str.to.re "#") (str.to.re "$$$"))) (re.++ (re.* (re.union (str.to.re "!!!") (str.to.re """"""""))) (re.++ (re.+ (re.* (str.to.re "ZZ"))) (re.++ (re.+ (re.* (str.to.re "YYY"))) (re.++ (re.* (re.+ (str.to.re "X"))) (re.++ (re.+ (re.* (str.to.re "WW"))) (re.++ (re.* (re.union (str.to.re "U") (str.to.re "VV"))) (re.++ (re.* (re.+ (str.to.re "TT"))) (re.++ (re.* (re.* (str.to.re "SS"))) (re.++ (re.* (re.+ (str.to.re "R"))) (re.++ (re.* (re.+ (str.to.re "QQQ"))) (re.++ (re.* (re.union (str.to.re "OO") (str.to.re "P"))) (re.++ (re.* (re.* (str.to.re "N"))) (re.++ (re.+ (re.* (str.to.re "M"))) (re.++ (re.+ (re.+ (str.to.re "LL"))) (re.++ (re.+ (re.union (str.to.re "JJJ") (str.to.re "K"))) (re.++ (re.union (re.union (str.to.re "GG") (str.to.re "HHH")) (re.+ (str.to.re "I"))) (re.++ (re.+ (re.* (str.to.re "F"))) (re.++ (re.union (re.+ (str.to.re "DDD")) (re.* (str.to.re "E"))) (re.++ (re.union (re.* (str.to.re "BBB")) (re.+ (str.to.re "C"))) (re.++ (re.* (re.union (str.to.re "zz") (str.to.re "AA"))) (re.++ (re.union (re.* (str.to.re "xx")) (re.* (str.to.re "yy"))) (re.++ (re.* (re.union (str.to.re "v") (str.to.re "www"))) (re.++ (re.union (re.* (str.to.re "s")) (re.union (str.to.re "ttt") (str.to.re "uu"))) (re.++ (re.* (re.+ (str.to.re "rr"))) (re.++ (re.+ (re.* (str.to.re "q"))) (re.++ (re.+ (re.+ (str.to.re "p"))) (re.++ (re.+ (re.* (str.to.re "oo"))) (re.++ (re.+ (re.+ (str.to.re "n"))) (re.++ (re.* (re.* (str.to.re "m"))) (re.++ (re.* (re.union (str.to.re "kk") (str.to.re "l"))) (re.++ (re.union (re.* (str.to.re "h")) (re.union (str.to.re "ii") (str.to.re "j"))) (re.++ (re.union (re.+ (str.to.re "ff")) (re.* (str.to.re "ggg"))) (re.++ (re.+ (re.union (str.to.re "ddd") (str.to.re "eee"))) (re.++ (re.union (re.+ (str.to.re "bbb")) (re.+ (str.to.re "c"))) (re.++ (re.* (re.union (str.to.re "999") (str.to.re "aaa"))) (re.++ (re.* (re.* (str.to.re "888"))) (re.++ (re.+ (re.+ (str.to.re "777"))) (re.++ (re.union (re.+ (str.to.re "5")) (re.* (str.to.re "6"))) (re.++ (re.union (re.+ (str.to.re "2")) (re.union (str.to.re "3") (str.to.re "4"))) (re.union (re.+ (str.to.re "00")) (re.* (str.to.re "111"))))))))))))))))))))))))))))))))))))))))))))))))))))))))))))))))))
(check-sat)